p tw 40 84
0 1
0 2
0 36
0 24
0 5
1 11
1 28
1 24
1 9
2 4
2 5
2 16
3 4
3 9
3 21
4 19
4 22
4 5
4 29
4 26
4 24
4 35
4 38
4 27
5 6
5 7
5 21
5 14
6 19
6 10
7 8
7 9
7 16
7 29
7 37
8 21
8 10
8 14
8 38
9 20
9 33
9 13
9 39
10 11
10 25
10 36
10 24
10 38
10 12
11 23
12 13
12 22
12 27
13 14
13 32
13 39
14 31
15 16
15 29
16 35
17 18
17 34
17 24
17 21
17 20
19 26
19 23
20 26
20 28
21 22
21 24
22 33
23 26
23 33
24 25
25 32
25 35
26 29
27 28
27 35
27 30
29 30
29 33
30 32
